NAME : single
TYPE : ATSP
DIMENSION : 30
EDGE_WEIGHT_TYPE : EXPLICIT
EDGE_WEIGHT_FORMAT : FULL_MATRIX
EDGE_WEIGHT_SECTION
0 50100 50100 50100 50100 50100 50000 50000 50100 50100 50100 50100 50100 50200 50100 50100 50200 1100 1200 700 700 700 600 600 600 600 400 300 100 100 
0 0 200 200 100 200 500 200 700 600 600 50000 50000 50000 50000 50000 50000 50000 50000 50000 50000 50000 50000 50000 50000 50000 50000 50000 50000 50000 
0 100 0 300 200 200 600 400 1000 800 900 1000 50000 50000 50000 50000 50000 50000 50000 50000 50000 50000 50000 50000 50000 50000 50000 50000 50000 50000 
0 200 300 0 100 0 300 0 500 500 500 50000 50000 50000 50000 50000 50000 50000 50000 50000 50000 50000 50000 50000 50000 50000 50000 50000 50000 50000 
0 100 200 100 0 100 400 100 700 600 600 800 50000 50000 50000 50000 50000 50000 50000 50000 50000 50000 50000 50000 50000 50000 50000 50000 50000 50000 
0 200 200 300 100 0 600 400 900 800 800 50000 50000 50000 50000 50000 50000 50000 50000 50000 50000 50000 50000 50000 50000 50000 50000 50000 50000 50000 
0 500 600 300 400 600 0 200 400 300 300 400 600 600 600 400 50000 50000 50000 50000 50000 50000 50000 50000 50000 50000 50000 50000 50000 50000 
0 200 400 0 100 400 300 0 400 400 500 600 50000 50000 50000 50000 50000 50000 50000 50000 50000 50000 50000 50000 50000 50000 50000 50000 50000 50000 
0 700 1000 500 700 900 400 500 0 200 100 100 200 300 200 100 600 700 50000 50000 50000 50000 50000 50000 50000 50000 50000 50000 50000 50000 
0 600 800 500 600 800 300 400 200 0 200 300 400 400 400 200 50000 50000 50000 50000 50000 50000 50000 50000 50000 50000 50000 50000 50000 50000 
0 600 900 500 600 800 300 500 100 200 0 200 200 200 200 200 50000 50000 50000 50000 50000 50000 50000 50000 50000 50000 50000 50000 50000 50000 
0 50000 1000 50000 800 50000 400 600 100 300 100 0 100 100 100 200 500 600 50000 50000 50000 50000 50000 50000 50000 50000 50000 50000 50000 50000 
0 50000 50000 50000 50000 50000 600 50000 200 400 200 100 0 100 0 200 300 400 900 50000 50000 50000 50000 50000 50000 50000 50000 50000 50000 50000 
0 50000 50000 50000 50000 50000 600 50000 300 400 300 200 0 0 0 200 300 400 900 50000 50000 50000 50000 50000 50000 50000 50000 50000 50000 50000 
0 50000 50000 50000 50000 50000 600 50000 200 400 200 100 100 0 0 200 300 400 900 50000 50000 50000 50000 50000 50000 50000 50000 50000 50000 50000 
0 50000 50000 50000 50000 50000 400 50000 100 200 200 200 200 200 200 0 50000 50000 50000 50000 50000 50000 50000 50000 50000 50000 50000 50000 50000 50000 
0 50000 50000 50000 50000 50000 50000 50000 600 50000 50000 500 300 300 300 50000 0 100 500 500 500 600 600 50000 700 50000 50000 50000 50000 50000 
0 50000 50000 50000 50000 50000 50000 50000 700 50000 50000 600 400 400 400 50000 100 0 500 400 400 400 500 50000 50000 50000 50000 50000 50000 50000 
0 50000 50000 50000 50000 50000 50000 50000 50000 50000 50000 50000 900 900 900 50000 500 500 0 300 300 300 300 500 500 500 600 700 700 50000 
0 50000 50000 50000 50000 50000 50000 50000 50000 50000 50000 50000 50000 50000 50000 50000 500 400 300 0 200 200 100 200 100 200 300 400 400 50000 
0 50000 50000 50000 50000 50000 50000 50000 50000 50000 50000 50000 50000 50000 50000 50000 500 400 300 200 0 100 200 200 200 200 300 500 400 50000 
0 50000 50000 50000 50000 50000 50000 50000 50000 50000 50000 50000 50000 50000 50000 50000 600 400 300 0 200 0 200 200 100 200 300 500 400 50000 
0 50000 50000 50000 50000 50000 50000 50000 50000 50000 50000 50000 50000 50000 50000 50000 600 500 300 200 100 200 0 200 100 200 200 300 300 50000 
0 50000 50000 50000 50000 50000 50000 50000 50000 50000 50000 50000 50000 50000 50000 50000 50000 50000 500 200 200 200 200 0 200 200 50000 50000 50000 50000 
0 50000 50000 50000 50000 50000 50000 50000 50000 50000 50000 50000 50000 50000 50000 50000 700 50000 500 100 200 100 100 100 0 100 50000 50000 50000 50000 
0 50000 50000 50000 50000 50000 50000 50000 50000 50000 50000 50000 50000 50000 50000 50000 50000 50000 500 200 200 200 200 200 100 0 300 50000 50000 50000 
0 50000 50000 50000 50000 50000 50000 50000 50000 50000 50000 50000 50000 50000 50000 50000 50000 50000 600 300 300 300 200 50000 50000 300 0 100 200 200 
0 50000 50000 50000 50000 50000 50000 50000 50000 50000 50000 50000 50000 50000 50000 50000 50000 50000 700 400 500 500 300 50000 50000 50000 100 0 200 200 
0 50000 50000 50000 50000 50000 50000 50000 50000 50000 50000 50000 50000 50000 50000 50000 50000 50000 700 400 400 400 300 50000 50000 50000 200 200 0 0 
0 50000 50000 50000 50000 50000 50000 50000 50000 50000 50000 50000 50000 50000 50000 50000 50000 50000 50000 50000 50000 50000 50000 50000 50000 50000 200 200 0 0 
